p cnf 330 1120
c p weight 132 -1 0
c p weight -132 1 0
c p weight 134 6.12323399573676603586882014729198302312846062338790031898128063403419218957424163818359375E-17 0
c p weight -134 1 0
c p weight 135 1 0
c p weight -135 1 0
c p weight 136 -1 0
c p weight -136 1 0
c p weight 138 -1 0
c p weight -138 1 0
c p weight 141 -1 0
c p weight -141 1 0
c p weight 144 -1 0
c p weight -144 1 0
c p weight 147 -1 0
c p weight -147 1 0
c p weight 150 -1 0
c p weight -150 1 0
c p weight 153 -1 0
c p weight -153 1 0
c p weight 156 -1 0
c p weight -156 1 0
c p weight 159 -1 0
c p weight -159 1 0
c p weight 162 -1 0
c p weight -162 1 0
c p weight 165 -1 0
c p weight -165 1 0
c p weight 168 -1 0
c p weight -168 1 0
c p weight 171 -1 0
c p weight -171 1 0
c p weight 174 -1 0
c p weight -174 1 0
c p weight 177 -1 0
c p weight -177 1 0
c p weight 180 -1 0
c p weight -180 1 0
c p weight 183 -1 0
c p weight -183 1 0
c p weight 186 -1 0
c p weight -186 1 0
c p weight 189 -1 0
c p weight -189 1 0
c p weight 192 -1 0
c p weight -192 1 0
c p weight 195 -1 0
c p weight -195 1 0
c p weight 198 -1 0
c p weight -198 1 0
c p weight 201 -1 0
c p weight -201 1 0
c p weight 204 -1 0
c p weight -204 1 0
c p weight 207 -1 0
c p weight -207 1 0
c p weight 210 -1 0
c p weight -210 1 0
c p weight 213 -1 0
c p weight -213 1 0
c p weight 216 -1 0
c p weight -216 1 0
c p weight 219 -1 0
c p weight -219 1 0
c p weight 222 -1 0
c p weight -222 1 0
c p weight 225 -1 0
c p weight -225 1 0
c p weight 228 -1 0
c p weight -228 1 0
c p weight 231 -1 0
c p weight -231 1 0
c p weight 234 -1 0
c p weight -234 1 0
c p weight 237 -1 0
c p weight -237 1 0
c p weight 240 -1 0
c p weight -240 1 0
c p weight 243 -1 0
c p weight -243 1 0
c p weight 246 -1 0
c p weight -246 1 0
c p weight 249 -1 0
c p weight -249 1 0
c p weight 252 -1 0
c p weight -252 1 0
c p weight 255 -1 0
c p weight -255 1 0
c p weight 258 -1 0
c p weight -258 1 0
c p weight 261 -1 0
c p weight -261 1 0
c p weight 264 -1 0
c p weight -264 1 0
c p weight 267 -1 0
c p weight -267 1 0
c p weight 270 -1 0
c p weight -270 1 0
c p weight 273 -1 0
c p weight -273 1 0
c p weight 276 -1 0
c p weight -276 1 0
c p weight 279 -1 0
c p weight -279 1 0
c p weight 282 -1 0
c p weight -282 1 0
c p weight 285 -1 0
c p weight -285 1 0
c p weight 288 -1 0
c p weight -288 1 0
c p weight 291 -1 0
c p weight -291 1 0
c p weight 294 -1 0
c p weight -294 1 0
c p weight 297 -1 0
c p weight -297 1 0
c p weight 300 -1 0
c p weight -300 1 0
c p weight 303 -1 0
c p weight -303 1 0
c p weight 306 -1 0
c p weight -306 1 0
c p weight 309 -1 0
c p weight -309 1 0
c p weight 312 -1 0
c p weight -312 1 0
c p weight 315 -1 0
c p weight -315 1 0
c p weight 318 -1 0
c p weight -318 1 0
c p weight 321 -1 0
c p weight -321 1 0
c p weight 324 -1 0
c p weight -324 1 0
c p weight 327 -1 0
c p weight -327 1 0
c p weight 330 -1 0
c p weight -330 1 0
-129 0
-127 0
-125 0
-123 0
-121 0
-119 0
-117 0
-115 0
-113 0
-111 0
-109 0
-107 0
-105 0
-103 0
-101 0
-99 0
-97 0
-95 0
-93 0
-91 0
-89 0
-87 0
-85 0
-83 0
-81 0
-79 0
-77 0
-75 0
-73 0
-71 0
-69 0
-67 0
-65 0
-63 0
-61 0
-59 0
-57 0
-55 0
-53 0
-51 0
-49 0
-47 0
-45 0
-43 0
-41 0
-39 0
-37 0
-35 0
-33 0
-31 0
-29 0
-27 0
-25 0
-23 0
-21 0
-19 0
-17 0
-15 0
-13 0
-11 0
-9 0
-7 0
-5 0
-3 0
-1 0
131 129 -130 0
131 -129 130 0
-131 129 130 0
-131 -129 -130 0
-132 129 0
-132 130 0
132 -129 -130 0
133 -129 131 0
-133 129 131 0
-134 131 0
133 -134 -129 0
-133 -134 129 0
133 134 129 -131 0
-133 134 -129 -131 0
-135 131 0
133 -135 129 0
-133 -135 -129 0
133 135 -129 -131 0
-133 135 129 -131 0
-136 133 0
-136 131 0
-136 -129 0
136 -133 129 -131 0
137 133 -131 0
137 -133 131 0
-137 133 131 0
-137 -133 -131 0
-138 133 0
-138 131 0
138 -133 -131 0
139 133 -127 0
139 -133 127 0
-139 133 127 0
-139 -133 -127 0
140 137 -128 0
140 -137 128 0
-140 137 128 0
-140 -137 -128 0
-141 133 0
-141 128 0
-141 127 -137 0
-141 -127 137 0
141 -133 127 137 -128 0
141 -133 -127 -137 -128 0
142 139 -125 0
142 -139 125 0
-142 139 125 0
-142 -139 -125 0
143 128 -126 0
143 -128 126 0
-143 128 126 0
-143 -128 -126 0
-144 139 0
-144 126 0
-144 125 -128 0
-144 -125 128 0
144 -139 125 128 -126 0
144 -139 -125 -128 -126 0
145 142 -123 0
145 -142 123 0
-145 142 123 0
-145 -142 -123 0
146 126 -124 0
146 -126 124 0
-146 126 124 0
-146 -126 -124 0
-147 142 0
-147 124 0
-147 123 -126 0
-147 -123 126 0
147 -142 123 126 -124 0
147 -142 -123 -126 -124 0
148 145 -121 0
148 -145 121 0
-148 145 121 0
-148 -145 -121 0
149 124 -122 0
149 -124 122 0
-149 124 122 0
-149 -124 -122 0
-150 145 0
-150 122 0
-150 121 -124 0
-150 -121 124 0
150 -145 121 124 -122 0
150 -145 -121 -124 -122 0
151 148 -119 0
151 -148 119 0
-151 148 119 0
-151 -148 -119 0
152 122 -120 0
152 -122 120 0
-152 122 120 0
-152 -122 -120 0
-153 148 0
-153 120 0
-153 119 -122 0
-153 -119 122 0
153 -148 119 122 -120 0
153 -148 -119 -122 -120 0
154 151 -117 0
154 -151 117 0
-154 151 117 0
-154 -151 -117 0
155 120 -118 0
155 -120 118 0
-155 120 118 0
-155 -120 -118 0
-156 151 0
-156 118 0
-156 117 -120 0
-156 -117 120 0
156 -151 117 120 -118 0
156 -151 -117 -120 -118 0
157 154 -115 0
157 -154 115 0
-157 154 115 0
-157 -154 -115 0
158 118 -116 0
158 -118 116 0
-158 118 116 0
-158 -118 -116 0
-159 154 0
-159 116 0
-159 115 -118 0
-159 -115 118 0
159 -154 115 118 -116 0
159 -154 -115 -118 -116 0
160 157 -113 0
160 -157 113 0
-160 157 113 0
-160 -157 -113 0
161 116 -114 0
161 -116 114 0
-161 116 114 0
-161 -116 -114 0
-162 157 0
-162 114 0
-162 113 -116 0
-162 -113 116 0
162 -157 113 116 -114 0
162 -157 -113 -116 -114 0
163 160 -111 0
163 -160 111 0
-163 160 111 0
-163 -160 -111 0
164 114 -112 0
164 -114 112 0
-164 114 112 0
-164 -114 -112 0
-165 160 0
-165 112 0
-165 111 -114 0
-165 -111 114 0
165 -160 111 114 -112 0
165 -160 -111 -114 -112 0
166 163 -109 0
166 -163 109 0
-166 163 109 0
-166 -163 -109 0
167 112 -110 0
167 -112 110 0
-167 112 110 0
-167 -112 -110 0
-168 163 0
-168 110 0
-168 109 -112 0
-168 -109 112 0
168 -163 109 112 -110 0
168 -163 -109 -112 -110 0
169 166 -107 0
169 -166 107 0
-169 166 107 0
-169 -166 -107 0
170 110 -108 0
170 -110 108 0
-170 110 108 0
-170 -110 -108 0
-171 166 0
-171 108 0
-171 107 -110 0
-171 -107 110 0
171 -166 107 110 -108 0
171 -166 -107 -110 -108 0
172 169 -105 0
172 -169 105 0
-172 169 105 0
-172 -169 -105 0
173 108 -106 0
173 -108 106 0
-173 108 106 0
-173 -108 -106 0
-174 169 0
-174 106 0
-174 105 -108 0
-174 -105 108 0
174 -169 105 108 -106 0
174 -169 -105 -108 -106 0
175 172 -103 0
175 -172 103 0
-175 172 103 0
-175 -172 -103 0
176 106 -104 0
176 -106 104 0
-176 106 104 0
-176 -106 -104 0
-177 172 0
-177 104 0
-177 103 -106 0
-177 -103 106 0
177 -172 103 106 -104 0
177 -172 -103 -106 -104 0
178 175 -101 0
178 -175 101 0
-178 175 101 0
-178 -175 -101 0
179 104 -102 0
179 -104 102 0
-179 104 102 0
-179 -104 -102 0
-180 175 0
-180 102 0
-180 101 -104 0
-180 -101 104 0
180 -175 101 104 -102 0
180 -175 -101 -104 -102 0
181 178 -99 0
181 -178 99 0
-181 178 99 0
-181 -178 -99 0
182 102 -100 0
182 -102 100 0
-182 102 100 0
-182 -102 -100 0
-183 178 0
-183 100 0
-183 99 -102 0
-183 -99 102 0
183 -178 99 102 -100 0
183 -178 -99 -102 -100 0
184 181 -97 0
184 -181 97 0
-184 181 97 0
-184 -181 -97 0
185 100 -98 0
185 -100 98 0
-185 100 98 0
-185 -100 -98 0
-186 181 0
-186 98 0
-186 97 -100 0
-186 -97 100 0
186 -181 97 100 -98 0
186 -181 -97 -100 -98 0
187 184 -95 0
187 -184 95 0
-187 184 95 0
-187 -184 -95 0
188 98 -96 0
188 -98 96 0
-188 98 96 0
-188 -98 -96 0
-189 184 0
-189 96 0
-189 95 -98 0
-189 -95 98 0
189 -184 95 98 -96 0
189 -184 -95 -98 -96 0
190 187 -93 0
190 -187 93 0
-190 187 93 0
-190 -187 -93 0
191 96 -94 0
191 -96 94 0
-191 96 94 0
-191 -96 -94 0
-192 187 0
-192 94 0
-192 93 -96 0
-192 -93 96 0
192 -187 93 96 -94 0
192 -187 -93 -96 -94 0
193 190 -91 0
193 -190 91 0
-193 190 91 0
-193 -190 -91 0
194 94 -92 0
194 -94 92 0
-194 94 92 0
-194 -94 -92 0
-195 190 0
-195 92 0
-195 91 -94 0
-195 -91 94 0
195 -190 91 94 -92 0
195 -190 -91 -94 -92 0
196 193 -89 0
196 -193 89 0
-196 193 89 0
-196 -193 -89 0
197 92 -90 0
197 -92 90 0
-197 92 90 0
-197 -92 -90 0
-198 193 0
-198 90 0
-198 89 -92 0
-198 -89 92 0
198 -193 89 92 -90 0
198 -193 -89 -92 -90 0
199 196 -87 0
199 -196 87 0
-199 196 87 0
-199 -196 -87 0
200 90 -88 0
200 -90 88 0
-200 90 88 0
-200 -90 -88 0
-201 196 0
-201 88 0
-201 87 -90 0
-201 -87 90 0
201 -196 87 90 -88 0
201 -196 -87 -90 -88 0
202 199 -85 0
202 -199 85 0
-202 199 85 0
-202 -199 -85 0
203 88 -86 0
203 -88 86 0
-203 88 86 0
-203 -88 -86 0
-204 199 0
-204 86 0
-204 85 -88 0
-204 -85 88 0
204 -199 85 88 -86 0
204 -199 -85 -88 -86 0
205 202 -83 0
205 -202 83 0
-205 202 83 0
-205 -202 -83 0
206 86 -84 0
206 -86 84 0
-206 86 84 0
-206 -86 -84 0
-207 202 0
-207 84 0
-207 83 -86 0
-207 -83 86 0
207 -202 83 86 -84 0
207 -202 -83 -86 -84 0
208 205 -81 0
208 -205 81 0
-208 205 81 0
-208 -205 -81 0
209 84 -82 0
209 -84 82 0
-209 84 82 0
-209 -84 -82 0
-210 205 0
-210 82 0
-210 81 -84 0
-210 -81 84 0
210 -205 81 84 -82 0
210 -205 -81 -84 -82 0
211 208 -79 0
211 -208 79 0
-211 208 79 0
-211 -208 -79 0
212 82 -80 0
212 -82 80 0
-212 82 80 0
-212 -82 -80 0
-213 208 0
-213 80 0
-213 79 -82 0
-213 -79 82 0
213 -208 79 82 -80 0
213 -208 -79 -82 -80 0
214 211 -77 0
214 -211 77 0
-214 211 77 0
-214 -211 -77 0
215 80 -78 0
215 -80 78 0
-215 80 78 0
-215 -80 -78 0
-216 211 0
-216 78 0
-216 77 -80 0
-216 -77 80 0
216 -211 77 80 -78 0
216 -211 -77 -80 -78 0
217 214 -75 0
217 -214 75 0
-217 214 75 0
-217 -214 -75 0
218 78 -76 0
218 -78 76 0
-218 78 76 0
-218 -78 -76 0
-219 214 0
-219 76 0
-219 75 -78 0
-219 -75 78 0
219 -214 75 78 -76 0
219 -214 -75 -78 -76 0
220 217 -73 0
220 -217 73 0
-220 217 73 0
-220 -217 -73 0
221 76 -74 0
221 -76 74 0
-221 76 74 0
-221 -76 -74 0
-222 217 0
-222 74 0
-222 73 -76 0
-222 -73 76 0
222 -217 73 76 -74 0
222 -217 -73 -76 -74 0
223 220 -71 0
223 -220 71 0
-223 220 71 0
-223 -220 -71 0
224 74 -72 0
224 -74 72 0
-224 74 72 0
-224 -74 -72 0
-225 220 0
-225 72 0
-225 71 -74 0
-225 -71 74 0
225 -220 71 74 -72 0
225 -220 -71 -74 -72 0
226 223 -69 0
226 -223 69 0
-226 223 69 0
-226 -223 -69 0
227 72 -70 0
227 -72 70 0
-227 72 70 0
-227 -72 -70 0
-228 223 0
-228 70 0
-228 69 -72 0
-228 -69 72 0
228 -223 69 72 -70 0
228 -223 -69 -72 -70 0
229 226 -67 0
229 -226 67 0
-229 226 67 0
-229 -226 -67 0
230 70 -68 0
230 -70 68 0
-230 70 68 0
-230 -70 -68 0
-231 226 0
-231 68 0
-231 67 -70 0
-231 -67 70 0
231 -226 67 70 -68 0
231 -226 -67 -70 -68 0
232 229 -65 0
232 -229 65 0
-232 229 65 0
-232 -229 -65 0
233 68 -66 0
233 -68 66 0
-233 68 66 0
-233 -68 -66 0
-234 229 0
-234 66 0
-234 65 -68 0
-234 -65 68 0
234 -229 65 68 -66 0
234 -229 -65 -68 -66 0
235 232 -63 0
235 -232 63 0
-235 232 63 0
-235 -232 -63 0
236 66 -64 0
236 -66 64 0
-236 66 64 0
-236 -66 -64 0
-237 232 0
-237 64 0
-237 63 -66 0
-237 -63 66 0
237 -232 63 66 -64 0
237 -232 -63 -66 -64 0
238 235 -61 0
238 -235 61 0
-238 235 61 0
-238 -235 -61 0
239 64 -62 0
239 -64 62 0
-239 64 62 0
-239 -64 -62 0
-240 235 0
-240 62 0
-240 61 -64 0
-240 -61 64 0
240 -235 61 64 -62 0
240 -235 -61 -64 -62 0
241 238 -59 0
241 -238 59 0
-241 238 59 0
-241 -238 -59 0
242 62 -60 0
242 -62 60 0
-242 62 60 0
-242 -62 -60 0
-243 238 0
-243 60 0
-243 59 -62 0
-243 -59 62 0
243 -238 59 62 -60 0
243 -238 -59 -62 -60 0
244 241 -57 0
244 -241 57 0
-244 241 57 0
-244 -241 -57 0
245 60 -58 0
245 -60 58 0
-245 60 58 0
-245 -60 -58 0
-246 241 0
-246 58 0
-246 57 -60 0
-246 -57 60 0
246 -241 57 60 -58 0
246 -241 -57 -60 -58 0
247 244 -55 0
247 -244 55 0
-247 244 55 0
-247 -244 -55 0
248 58 -56 0
248 -58 56 0
-248 58 56 0
-248 -58 -56 0
-249 244 0
-249 56 0
-249 55 -58 0
-249 -55 58 0
249 -244 55 58 -56 0
249 -244 -55 -58 -56 0
250 247 -53 0
250 -247 53 0
-250 247 53 0
-250 -247 -53 0
251 56 -54 0
251 -56 54 0
-251 56 54 0
-251 -56 -54 0
-252 247 0
-252 54 0
-252 53 -56 0
-252 -53 56 0
252 -247 53 56 -54 0
252 -247 -53 -56 -54 0
253 250 -51 0
253 -250 51 0
-253 250 51 0
-253 -250 -51 0
254 54 -52 0
254 -54 52 0
-254 54 52 0
-254 -54 -52 0
-255 250 0
-255 52 0
-255 51 -54 0
-255 -51 54 0
255 -250 51 54 -52 0
255 -250 -51 -54 -52 0
256 253 -49 0
256 -253 49 0
-256 253 49 0
-256 -253 -49 0
257 52 -50 0
257 -52 50 0
-257 52 50 0
-257 -52 -50 0
-258 253 0
-258 50 0
-258 49 -52 0
-258 -49 52 0
258 -253 49 52 -50 0
258 -253 -49 -52 -50 0
259 256 -47 0
259 -256 47 0
-259 256 47 0
-259 -256 -47 0
260 50 -48 0
260 -50 48 0
-260 50 48 0
-260 -50 -48 0
-261 256 0
-261 48 0
-261 47 -50 0
-261 -47 50 0
261 -256 47 50 -48 0
261 -256 -47 -50 -48 0
262 259 -45 0
262 -259 45 0
-262 259 45 0
-262 -259 -45 0
263 48 -46 0
263 -48 46 0
-263 48 46 0
-263 -48 -46 0
-264 259 0
-264 46 0
-264 45 -48 0
-264 -45 48 0
264 -259 45 48 -46 0
264 -259 -45 -48 -46 0
265 262 -43 0
265 -262 43 0
-265 262 43 0
-265 -262 -43 0
266 46 -44 0
266 -46 44 0
-266 46 44 0
-266 -46 -44 0
-267 262 0
-267 44 0
-267 43 -46 0
-267 -43 46 0
267 -262 43 46 -44 0
267 -262 -43 -46 -44 0
268 265 -41 0
268 -265 41 0
-268 265 41 0
-268 -265 -41 0
269 44 -42 0
269 -44 42 0
-269 44 42 0
-269 -44 -42 0
-270 265 0
-270 42 0
-270 41 -44 0
-270 -41 44 0
270 -265 41 44 -42 0
270 -265 -41 -44 -42 0
271 268 -39 0
271 -268 39 0
-271 268 39 0
-271 -268 -39 0
272 42 -40 0
272 -42 40 0
-272 42 40 0
-272 -42 -40 0
-273 268 0
-273 40 0
-273 39 -42 0
-273 -39 42 0
273 -268 39 42 -40 0
273 -268 -39 -42 -40 0
274 271 -37 0
274 -271 37 0
-274 271 37 0
-274 -271 -37 0
275 40 -38 0
275 -40 38 0
-275 40 38 0
-275 -40 -38 0
-276 271 0
-276 38 0
-276 37 -40 0
-276 -37 40 0
276 -271 37 40 -38 0
276 -271 -37 -40 -38 0
277 274 -35 0
277 -274 35 0
-277 274 35 0
-277 -274 -35 0
278 38 -36 0
278 -38 36 0
-278 38 36 0
-278 -38 -36 0
-279 274 0
-279 36 0
-279 35 -38 0
-279 -35 38 0
279 -274 35 38 -36 0
279 -274 -35 -38 -36 0
280 277 -33 0
280 -277 33 0
-280 277 33 0
-280 -277 -33 0
281 36 -34 0
281 -36 34 0
-281 36 34 0
-281 -36 -34 0
-282 277 0
-282 34 0
-282 33 -36 0
-282 -33 36 0
282 -277 33 36 -34 0
282 -277 -33 -36 -34 0
283 280 -31 0
283 -280 31 0
-283 280 31 0
-283 -280 -31 0
284 34 -32 0
284 -34 32 0
-284 34 32 0
-284 -34 -32 0
-285 280 0
-285 32 0
-285 31 -34 0
-285 -31 34 0
285 -280 31 34 -32 0
285 -280 -31 -34 -32 0
286 283 -29 0
286 -283 29 0
-286 283 29 0
-286 -283 -29 0
287 32 -30 0
287 -32 30 0
-287 32 30 0
-287 -32 -30 0
-288 283 0
-288 30 0
-288 29 -32 0
-288 -29 32 0
288 -283 29 32 -30 0
288 -283 -29 -32 -30 0
289 286 -27 0
289 -286 27 0
-289 286 27 0
-289 -286 -27 0
290 30 -28 0
290 -30 28 0
-290 30 28 0
-290 -30 -28 0
-291 286 0
-291 28 0
-291 27 -30 0
-291 -27 30 0
291 -286 27 30 -28 0
291 -286 -27 -30 -28 0
292 289 -25 0
292 -289 25 0
-292 289 25 0
-292 -289 -25 0
293 28 -26 0
293 -28 26 0
-293 28 26 0
-293 -28 -26 0
-294 289 0
-294 26 0
-294 25 -28 0
-294 -25 28 0
294 -289 25 28 -26 0
294 -289 -25 -28 -26 0
295 292 -23 0
295 -292 23 0
-295 292 23 0
-295 -292 -23 0
296 26 -24 0
296 -26 24 0
-296 26 24 0
-296 -26 -24 0
-297 292 0
-297 24 0
-297 23 -26 0
-297 -23 26 0
297 -292 23 26 -24 0
297 -292 -23 -26 -24 0
298 295 -21 0
298 -295 21 0
-298 295 21 0
-298 -295 -21 0
299 24 -22 0
299 -24 22 0
-299 24 22 0
-299 -24 -22 0
-300 295 0
-300 22 0
-300 21 -24 0
-300 -21 24 0
300 -295 21 24 -22 0
300 -295 -21 -24 -22 0
301 298 -19 0
301 -298 19 0
-301 298 19 0
-301 -298 -19 0
302 22 -20 0
302 -22 20 0
-302 22 20 0
-302 -22 -20 0
-303 298 0
-303 20 0
-303 19 -22 0
-303 -19 22 0
303 -298 19 22 -20 0
303 -298 -19 -22 -20 0
304 301 -17 0
304 -301 17 0
-304 301 17 0
-304 -301 -17 0
305 20 -18 0
305 -20 18 0
-305 20 18 0
-305 -20 -18 0
-306 301 0
-306 18 0
-306 17 -20 0
-306 -17 20 0
306 -301 17 20 -18 0
306 -301 -17 -20 -18 0
307 304 -15 0
307 -304 15 0
-307 304 15 0
-307 -304 -15 0
308 18 -16 0
308 -18 16 0
-308 18 16 0
-308 -18 -16 0
-309 304 0
-309 16 0
-309 15 -18 0
-309 -15 18 0
309 -304 15 18 -16 0
309 -304 -15 -18 -16 0
310 307 -13 0
310 -307 13 0
-310 307 13 0
-310 -307 -13 0
311 16 -14 0
311 -16 14 0
-311 16 14 0
-311 -16 -14 0
-312 307 0
-312 14 0
-312 13 -16 0
-312 -13 16 0
312 -307 13 16 -14 0
312 -307 -13 -16 -14 0
313 310 -11 0
313 -310 11 0
-313 310 11 0
-313 -310 -11 0
314 14 -12 0
314 -14 12 0
-314 14 12 0
-314 -14 -12 0
-315 310 0
-315 12 0
-315 11 -14 0
-315 -11 14 0
315 -310 11 14 -12 0
315 -310 -11 -14 -12 0
316 313 -9 0
316 -313 9 0
-316 313 9 0
-316 -313 -9 0
317 12 -10 0
317 -12 10 0
-317 12 10 0
-317 -12 -10 0
-318 313 0
-318 10 0
-318 9 -12 0
-318 -9 12 0
318 -313 9 12 -10 0
318 -313 -9 -12 -10 0
319 316 -7 0
319 -316 7 0
-319 316 7 0
-319 -316 -7 0
320 10 -8 0
320 -10 8 0
-320 10 8 0
-320 -10 -8 0
-321 316 0
-321 8 0
-321 7 -10 0
-321 -7 10 0
321 -316 7 10 -8 0
321 -316 -7 -10 -8 0
322 319 -5 0
322 -319 5 0
-322 319 5 0
-322 -319 -5 0
323 8 -6 0
323 -8 6 0
-323 8 6 0
-323 -8 -6 0
-324 319 0
-324 6 0
-324 5 -8 0
-324 -5 8 0
324 -319 5 8 -6 0
324 -319 -5 -8 -6 0
325 322 -3 0
325 -322 3 0
-325 322 3 0
-325 -322 -3 0
326 6 -4 0
326 -6 4 0
-326 6 4 0
-326 -6 -4 0
-327 322 0
-327 4 0
-327 3 -6 0
-327 -3 6 0
327 -322 3 6 -4 0
327 -322 -3 -6 -4 0
328 325 -1 0
328 -325 1 0
-328 325 1 0
-328 -325 -1 0
329 4 -2 0
329 -4 2 0
-329 4 2 0
-329 -4 -2 0
-330 325 0
-330 2 0
-330 1 -4 0
-330 -1 4 0
330 -325 1 4 -2 0
330 -325 -1 -4 -2 0
-328 0
-325 0
-329 0
-322 0
-326 0
-319 0
-323 0
-316 0
-320 0
-313 0
-317 0
-310 0
-314 0
-307 0
-311 0
-304 0
-308 0
-301 0
-305 0
-298 0
-302 0
-295 0
-299 0
-292 0
-296 0
-289 0
-293 0
-286 0
-290 0
-283 0
-287 0
-280 0
-284 0
-277 0
-281 0
-274 0
-278 0
-271 0
-275 0
-268 0
-272 0
-265 0
-269 0
-262 0
-266 0
-259 0
-263 0
-256 0
-260 0
-253 0
-257 0
-250 0
-254 0
-247 0
-251 0
-244 0
-248 0
-241 0
-245 0
-238 0
-242 0
-235 0
-239 0
-232 0
-236 0
-229 0
-233 0
-226 0
-230 0
-223 0
-227 0
-220 0
-224 0
-217 0
-221 0
-214 0
-218 0
-211 0
-215 0
-208 0
-212 0
-205 0
-209 0
-202 0
-206 0
-199 0
-203 0
-196 0
-200 0
-193 0
-197 0
-190 0
-194 0
-187 0
-191 0
-184 0
-188 0
-181 0
-185 0
-178 0
-182 0
-175 0
-179 0
-172 0
-176 0
-169 0
-173 0
-166 0
-170 0
-163 0
-167 0
-160 0
-164 0
-157 0
-161 0
-154 0
-158 0
-151 0
-155 0
-148 0
-152 0
-145 0
-149 0
-142 0
-146 0
-139 0
-143 0
-133 0
-140 0
